% seed = 0

mint = 33;
% maxt = 170;

nActs = 62;
dur = [0,2,2,1,2,1,2,2,2,2,4,4,4,5,5,7,4,3,3,1,3,2,3,3,3,2,2,2,1,3,5,3,4,3,2,2,3,3,3,1,4,3,2,2,1,6,3,3,3,4,1,2,3,2,2,5,3,2,2,5,3,0];

nSkills = 9;
sreq = [| 0,0,0,0,0,0,0,0,0,
	| 0,0,0,1,0,1,0,0,1,
	| 0,1,0,1,0,1,0,0,1,
	| 0,0,0,0,0,1,0,0,0,
	| 0,0,0,0,0,0,0,0,1,
	| 0,0,0,0,0,0,0,0,1,
	| 0,0,0,0,1,1,1,0,0,
	| 0,0,0,0,1,0,1,0,1,
	| 0,0,0,0,0,1,0,0,0,
	| 0,0,0,0,1,2,0,1,0,
	| 0,2,0,0,1,0,0,0,1,
	| 0,0,0,0,0,0,1,0,0,
	| 0,0,0,0,0,1,0,0,0,
	| 0,0,1,0,0,0,0,1,0,
	| 0,1,0,0,2,0,0,0,1,
	| 0,0,1,1,0,1,0,0,0,
	| 0,0,1,0,0,0,0,0,1,
	| 0,0,0,1,0,0,1,0,1,
	| 0,0,0,1,1,0,1,0,0,
	| 0,0,0,0,0,0,0,0,1,
	| 0,1,0,1,0,1,0,0,0,
	| 0,1,0,0,0,0,0,0,0,
	| 0,0,0,0,0,1,0,0,0,
	| 0,0,0,0,2,0,0,0,0,
	| 0,0,0,0,0,2,0,0,1,
	| 0,0,0,0,1,1,0,0,1,
	| 0,0,0,0,1,1,0,0,0,
	| 0,0,1,0,1,0,1,0,0,
	| 0,0,0,0,0,0,0,1,0,
	| 0,0,0,0,0,0,0,1,0,
	| 0,1,0,0,1,0,0,0,0,
	| 0,0,0,1,0,1,0,0,1,
	| 0,0,0,1,1,1,1,0,0,
	| 0,0,0,0,1,1,0,0,1,
	| 0,0,0,0,0,1,1,0,1,
	| 0,1,0,0,2,0,0,0,1,
	| 0,0,0,0,0,1,0,0,0,
	| 0,0,0,0,0,1,0,0,0,
	| 0,1,0,1,1,0,1,0,0,
	| 0,0,1,0,0,1,0,0,1,
	| 0,0,1,1,2,0,0,0,0,
	| 0,0,0,1,0,3,0,0,0,
	| 0,1,0,0,0,0,0,1,0,
	| 0,0,0,0,0,2,0,1,0,
	| 0,0,0,0,0,0,1,0,1,
	| 0,0,1,0,1,0,1,1,0,
	| 1,0,0,0,0,0,0,0,0,
	| 0,0,0,0,0,1,0,0,0,
	| 0,1,0,1,1,0,0,0,1,
	| 0,0,1,0,0,0,0,0,1,
	| 0,0,0,0,1,0,0,0,0,
	| 0,0,0,0,1,1,0,1,0,
	| 0,0,0,1,0,2,0,0,0,
	| 0,0,0,0,1,1,0,0,1,
	| 0,0,0,0,0,1,0,0,2,
	| 0,0,0,0,1,1,0,0,2,
	| 0,0,0,0,2,0,1,0,1,
	| 0,0,0,2,0,0,0,0,0,
	| 0,0,0,0,0,1,0,0,1,
	| 0,0,0,0,0,0,1,0,0,
	| 0,0,1,0,1,1,1,0,0,
	| 0,0,0,0,0,0,0,0,0, |];

% SumOfsreq = 150;

nResources = 13;
mastery = [| false,false,false,false,true,true,false,false,false,
	| false,false,false,false,true,true,false,false,false,
	| false,false,false,true,true,true,false,false,false,
	| false,true,true,false,false,true,false,false,true,
	| false,true,true,false,false,false,false,false,false,
	| true,true,true,false,false,false,true,true,true,
	| false,false,false,false,false,false,true,true,true,
	| false,false,false,true,true,true,false,false,false,
	| false,false,false,true,true,true,false,false,false,
	| false,false,false,false,false,false,false,false,true,
	| false,false,true,false,true,true,false,false,false,
	| false,false,false,false,false,false,false,false,true,
	| false,true,true,false,false,false,false,false,false, |];

nPrecs = 93;
pred = [1,1,1,2,2,2,3,4,4,4,5,5,5,6,6,6,7,7,8,9,9,10,10,11,12,12,13,13,13,14,14,14,15,16,17,18,18,18,19,20,21,21,22,23,23,24,24,25,26,27,27,28,29,30,31,31,32,33,33,34,35,36,36,37,38,39,40,40,40,41,41,42,43,44,44,45,46,47,48,49,50,51,52,53,54,54,55,56,57,58,59,60,61];
succ = [2,3,4,11,6,7,44,9,21,5,10,12,14,58,15,8,26,47,56,33,18,51,16,48,13,46,17,19,20,25,15,32,23,42,47,35,22,38,40,23,29,30,37,36,24,60,31,50,27,28,31,42,45,53,34,39,41,50,55,52,41,59,37,39,49,61,49,45,56,52,54,43,50,52,48,53,56,57,61,58,54,54,59,57,57,59,60,61,58,60,62,62,62];

nUnrels = 1283;
unpred = [2,2,2,2,2,2,2,2,2,2,2,2,2,2,2,2,2,2,2,2,2,2,2,2,2,2,2,2,2,2,2,3,3,3,3,3,3,3,3,3,3,3,3,3,3,3,3,3,3,3,3,3,3,3,3,3,3,3,3,3,3,3,3,3,3,3,3,3,3,3,3,3,3,3,3,3,3,3,3,3,3,3,3,3,4,4,4,4,4,4,4,4,4,5,5,5,5,5,5,5,5,5,5,5,5,5,5,5,5,5,5,5,6,6,6,6,6,6,6,6,6,6,6,6,6,6,6,6,6,6,6,6,6,6,6,6,6,6,6,6,6,6,6,6,6,6,6,6,6,6,6,6,7,7,7,7,7,7,7,7,7,7,7,7,7,7,7,7,7,7,7,7,7,7,7,7,7,7,7,7,7,7,7,7,7,7,7,7,7,8,8,8,8,8,8,8,8,8,8,8,8,8,8,8,8,8,8,8,8,8,8,8,8,8,8,8,8,8,8,8,8,8,8,8,8,8,8,8,8,8,8,8,8,8,8,8,8,8,8,8,9,9,9,9,9,9,9,9,9,9,9,9,9,9,9,9,9,9,9,9,9,9,9,9,9,9,9,9,9,9,9,9,9,9,10,10,10,10,10,10,10,10,10,10,10,10,10,10,10,10,10,10,10,10,10,10,10,10,10,10,10,10,10,10,10,10,10,10,10,10,10,10,10,10,10,11,11,11,11,11,11,11,11,11,11,11,11,11,11,11,11,11,11,11,11,11,11,11,11,11,11,11,11,11,11,11,11,11,11,11,11,11,11,11,11,11,11,11,11,11,11,11,11,12,12,12,12,12,12,12,12,12,12,12,12,12,12,12,12,12,12,12,12,12,12,12,12,12,13,13,13,13,13,13,13,13,13,13,13,13,13,13,13,13,13,13,13,13,13,13,13,13,13,13,14,14,14,14,14,14,14,14,14,14,14,14,14,14,14,14,14,14,14,14,14,14,14,14,14,14,14,14,15,15,15,15,15,15,15,15,15,15,15,15,15,15,15,15,15,15,15,15,15,15,15,15,15,15,15,15,15,15,15,15,15,15,15,16,16,16,16,16,16,16,16,16,16,16,16,16,16,16,16,16,16,16,16,16,16,16,16,16,16,16,16,16,16,16,16,16,16,16,16,16,17,17,17,17,17,17,17,17,17,17,17,17,17,17,17,17,17,17,17,17,17,17,17,17,17,17,17,17,17,17,17,17,17,17,17,17,17,17,17,17,18,18,18,18,18,18,18,18,18,18,18,18,18,18,18,18,18,18,18,18,18,18,18,18,18,18,18,18,18,19,19,19,19,19,19,19,19,19,19,19,19,19,19,19,19,19,19,19,19,19,19,19,19,19,19,19,19,19,19,19,19,19,20,20,20,20,20,20,20,20,20,20,20,20,20,20,20,20,20,20,20,20,20,20,20,20,20,20,20,20,20,20,21,21,21,21,21,21,21,21,21,21,21,21,21,21,21,21,21,21,21,21,21,21,21,21,21,21,21,21,21,21,21,21,21,22,22,22,22,22,22,22,22,22,22,22,22,22,22,22,22,22,22,22,22,22,22,22,22,22,22,22,22,22,22,22,22,22,22,22,22,23,23,23,23,23,23,23,23,23,23,23,23,23,23,23,23,23,23,23,23,23,23,23,23,23,23,23,23,24,24,24,24,24,24,24,24,24,24,24,24,24,24,24,24,24,24,24,24,24,24,24,24,24,24,24,24,24,24,25,25,25,25,25,25,25,25,25,25,25,25,25,25,25,25,25,25,25,25,25,25,25,25,25,25,25,25,25,25,26,26,26,26,26,26,26,26,26,26,26,26,26,26,26,26,26,26,26,26,27,27,27,27,27,27,27,27,27,27,27,27,27,27,27,27,27,27,27,27,28,28,28,28,28,28,28,28,28,28,28,28,28,28,28,28,28,28,28,28,28,28,28,28,28,29,29,29,29,29,29,29,29,29,29,29,29,29,29,29,29,29,29,29,29,29,29,29,29,29,29,29,30,30,30,30,30,30,30,30,30,30,30,30,30,30,30,30,30,30,30,30,30,30,30,30,30,30,30,31,31,31,31,31,31,31,31,31,31,31,31,31,31,31,31,31,31,31,31,31,31,31,31,31,32,32,32,32,32,32,32,32,32,32,32,32,32,32,32,32,32,32,32,32,32,32,33,33,33,33,33,33,33,33,33,33,33,33,33,33,33,33,33,33,33,33,33,34,34,34,34,34,34,34,34,34,34,34,34,34,34,34,34,34,34,34,34,34,34,34,34,34,35,35,35,35,35,35,35,35,35,35,35,35,35,35,35,35,35,35,35,36,36,36,36,36,36,36,36,36,36,36,36,36,36,36,36,36,36,36,36,36,37,37,37,37,37,37,37,37,37,37,37,37,37,37,37,37,37,37,37,37,37,37,38,38,38,38,38,38,38,38,38,38,38,38,38,38,38,38,38,38,38,38,39,39,39,39,39,39,39,39,39,39,39,39,39,39,39,39,39,39,39,39,39,40,40,40,40,40,40,40,40,40,40,40,40,40,41,41,41,41,41,41,41,41,41,41,41,41,41,41,42,42,42,42,42,42,42,42,42,42,42,42,43,43,43,43,43,43,43,43,43,43,43,43,44,44,44,44,44,44,44,44,44,44,44,44,44,45,45,45,45,45,45,45,45,45,45,45,45,46,46,46,46,46,46,46,46,46,46,46,46,46,47,47,47,47,47,47,47,47,47,47,47,48,48,48,48,48,48,48,48,48,48,48,48,49,49,49,49,49,49,49,49,49,49,50,50,50,50,50,50,51,51,51,51,51,52,52,52,52,52,52,52,52,53,53,53,53,53,54,54,54,55,55,55,55,55,56,56,56,56,57,57,58,58,59,59,60];
unsucc = [3,4,5,9,10,12,13,14,16,17,18,19,20,21,22,25,29,30,32,33,35,38,40,41,44,45,46,49,51,53,55,4,5,6,7,8,9,10,11,12,13,14,15,16,17,18,19,20,21,22,23,24,25,26,27,28,29,30,31,32,33,34,35,36,37,38,39,40,41,42,43,45,46,47,49,50,51,53,54,55,56,57,58,60,6,7,8,11,26,27,28,44,48,6,7,8,9,11,18,21,22,26,27,28,29,30,33,35,38,44,48,55,7,9,10,11,12,13,14,16,17,18,19,20,21,22,25,26,27,28,29,30,32,33,35,38,40,41,42,43,44,45,46,47,48,49,50,51,53,54,55,57,8,9,10,11,12,13,14,15,16,17,18,19,20,21,22,23,24,25,29,30,32,33,35,36,37,38,40,41,44,45,46,48,49,51,53,55,56,9,10,11,12,13,14,15,16,17,18,19,20,21,22,23,24,25,26,27,28,29,30,31,32,33,34,35,36,37,38,39,40,41,42,43,44,45,46,47,48,49,50,51,52,53,54,55,57,58,59,60,10,11,12,13,14,15,16,17,19,20,21,23,24,25,26,27,28,29,30,31,32,34,36,40,42,43,44,45,46,47,48,51,53,56,11,12,13,14,15,17,18,19,20,21,22,23,24,25,26,27,28,29,30,31,32,33,34,35,36,37,38,39,40,41,44,45,46,47,48,49,52,53,55,56,61,12,13,14,15,16,17,18,19,20,21,22,23,24,25,26,27,28,29,30,31,32,33,34,35,36,37,38,39,40,41,42,43,44,45,46,47,49,50,51,52,53,54,55,56,57,58,59,60,14,15,16,18,21,22,25,26,27,28,29,30,32,33,35,38,41,42,43,44,48,50,51,54,55,14,15,16,18,21,22,25,26,27,28,29,30,32,33,35,38,41,42,43,44,46,48,50,51,54,55,16,17,18,19,20,21,22,26,27,28,29,30,33,35,38,40,42,43,44,45,46,47,48,49,51,53,55,56,16,17,18,19,20,21,22,25,26,27,28,29,30,32,33,35,38,40,41,42,43,44,45,46,47,48,49,50,51,53,54,55,56,57,58,17,18,19,20,21,22,23,24,25,26,27,28,29,30,31,32,33,34,35,36,37,38,39,40,41,44,45,46,47,48,49,51,52,53,55,56,61,18,19,20,21,22,23,24,25,26,27,28,29,30,31,32,33,34,35,36,37,38,39,40,41,42,43,44,45,46,48,49,50,51,52,53,54,55,56,59,61,19,20,21,23,24,25,26,27,28,29,30,31,32,33,34,36,40,42,43,44,45,46,47,48,50,51,53,55,56,20,21,22,23,24,25,26,27,28,29,30,31,32,33,34,35,36,37,38,39,41,42,43,44,46,47,48,50,51,52,54,55,59,21,22,25,26,27,28,29,30,32,33,35,38,40,41,42,43,44,45,46,47,48,49,50,51,53,54,55,56,57,58,22,23,24,25,26,27,28,31,32,33,34,35,36,37,38,39,40,41,42,43,44,46,47,48,49,50,51,52,54,55,56,59,61,23,24,25,26,27,28,29,30,31,32,33,34,35,36,38,40,41,42,43,44,45,46,47,48,49,50,51,52,53,54,55,56,57,58,59,60,25,26,27,28,29,30,32,33,35,38,40,41,42,43,44,45,46,47,48,49,50,51,53,54,55,56,57,58,25,26,27,28,29,30,32,33,35,36,37,38,40,41,42,43,44,45,46,47,48,49,50,51,53,54,55,56,57,58,26,27,28,29,30,31,32,33,34,35,36,37,38,39,40,41,42,43,44,45,46,47,48,49,51,52,53,55,56,61,29,30,32,33,35,36,37,38,40,41,44,45,46,47,48,49,51,53,55,56,29,30,32,33,35,36,37,38,40,41,44,45,46,47,48,49,51,53,55,56,29,30,31,32,33,34,35,36,37,38,39,40,41,44,45,46,47,48,49,51,52,53,55,56,61,30,31,32,33,34,35,36,37,38,39,40,41,42,43,44,46,47,48,49,50,51,52,54,55,56,59,61,31,32,33,34,35,36,37,38,39,40,41,42,43,44,45,46,47,48,49,50,51,52,54,55,56,59,61,32,33,35,36,37,38,40,41,42,43,44,45,46,47,48,49,50,51,53,54,55,56,57,58,60,33,34,35,36,37,38,39,40,42,43,44,45,46,47,48,49,50,51,53,55,56,61,34,35,36,37,38,39,40,41,42,43,44,45,46,47,48,49,51,52,53,56,61,35,36,37,38,39,40,41,42,43,44,45,46,47,48,49,50,51,53,54,55,56,57,58,60,61,36,37,38,39,40,42,43,44,45,46,47,48,49,50,51,53,55,56,61,38,40,41,42,43,44,45,46,47,48,49,50,51,52,53,54,55,56,57,58,60,38,40,41,42,43,44,45,46,47,48,49,50,51,52,53,54,55,56,57,58,59,60,39,40,41,42,43,44,45,46,47,48,50,51,52,53,54,55,56,57,59,61,40,41,42,43,44,45,46,47,48,49,50,51,52,53,54,55,56,57,58,59,60,41,42,43,44,46,47,48,50,51,52,54,55,59,42,43,44,45,46,47,48,49,50,51,53,55,56,61,44,45,46,47,48,49,51,52,53,55,56,61,44,45,46,47,48,49,51,52,53,55,56,61,45,46,47,49,50,51,53,54,55,56,57,58,60,46,47,48,49,50,51,52,54,55,56,59,61,47,48,49,50,51,52,53,54,55,57,58,59,60,48,49,50,51,52,53,54,55,56,59,61,49,50,51,52,53,54,55,56,57,58,59,60,50,51,52,53,54,55,56,57,59,61,51,52,53,55,56,61,52,53,55,56,61,53,54,55,56,57,58,60,61,54,55,56,59,61,55,56,61,56,57,58,59,61,57,58,59,60,59,61,59,61,60,61,61];

USEFUL_RES = [{},
	{1,2,3,4,6,7,8,9,10,11,12},
	{1,2,3,4,5,6,7,8,9,10,11,12,13},
	{1,2,3,4,8,9,11},
	{4,6,7,10,12},
	{4,6,7,10,12},
	{1,2,3,4,6,7,8,9,11},
	{1,2,3,4,6,7,8,9,10,11,12},
	{1,2,3,4,8,9,11},
	{1,2,3,4,6,7,8,9,11},
	{1,2,3,4,5,6,7,8,9,10,11,12,13},
	{6,7},
	{1,2,3,4,8,9,11},
	{4,5,6,7,11,13},
	{1,2,3,4,5,6,7,8,9,10,11,12,13},
	{1,2,3,4,5,6,8,9,11,13},
	{4,5,6,7,10,11,12,13},
	{3,4,6,7,8,9,10,12},
	{1,2,3,6,7,8,9,11},
	{4,6,7,10,12},
	{1,2,3,4,5,6,8,9,11,13},
	{4,5,6,13},
	{1,2,3,4,8,9,11},
	{1,2,3,8,9,11},
	{1,2,3,4,6,7,8,9,10,11,12},
	{1,2,3,4,6,7,8,9,10,11,12},
	{1,2,3,4,8,9,11},
	{1,2,3,4,5,6,7,8,9,11,13},
	{6,7},
	{6,7},
	{1,2,3,4,5,6,8,9,11,13},
	{1,2,3,4,6,7,8,9,10,11,12},
	{1,2,3,4,6,7,8,9,11},
	{1,2,3,4,6,7,8,9,10,11,12},
	{1,2,3,4,6,7,8,9,10,11,12},
	{1,2,3,4,5,6,7,8,9,10,11,12,13},
	{1,2,3,4,8,9,11},
	{1,2,3,4,8,9,11},
	{1,2,3,4,5,6,7,8,9,11,13},
	{1,2,3,4,5,6,7,8,9,10,11,12,13},
	{1,2,3,4,5,6,8,9,11,13},
	{1,2,3,4,8,9,11},
	{4,5,6,7,13},
	{1,2,3,4,6,7,8,9,11},
	{4,6,7,10,12},
	{1,2,3,4,5,6,7,8,9,11,13},
	{6},
	{1,2,3,4,8,9,11},
	{1,2,3,4,5,6,7,8,9,10,11,12,13},
	{4,5,6,7,10,11,12,13},
	{1,2,3,8,9,11},
	{1,2,3,4,6,7,8,9,11},
	{1,2,3,4,8,9,11},
	{1,2,3,4,6,7,8,9,10,11,12},
	{1,2,3,4,6,7,8,9,10,11,12},
	{1,2,3,4,6,7,8,9,10,11,12},
	{1,2,3,4,6,7,8,9,10,11,12},
	{3,8,9},
	{1,2,3,4,6,7,8,9,10,11,12},
	{6,7},
	{1,2,3,4,5,6,7,8,9,11,13},
	{}];

POTENTIAL_ACT = [{2,3,4,7,8,9,10,11,13,15,16,19,21,23,24,25,26,27,28,31,32,33,34,35,36,37,38,39,40,41,42,44,46,48,49,51,52,53,54,55,56,57,59,61},
	{2,3,4,7,8,9,10,11,13,15,16,19,21,23,24,25,26,27,28,31,32,33,34,35,36,37,38,39,40,41,42,44,46,48,49,51,52,53,54,55,56,57,59,61},
	{2,3,4,7,8,9,10,11,13,15,16,18,19,21,23,24,25,26,27,28,31,32,33,34,35,36,37,38,39,40,41,42,44,46,48,49,51,52,53,54,55,56,57,58,59,61},
	{2,3,4,5,6,7,8,9,10,11,13,14,15,16,17,18,20,21,22,23,25,26,27,28,31,32,33,34,35,36,37,38,39,40,41,42,43,44,45,46,48,49,50,52,53,54,55,56,57,59,61},
	{3,11,14,15,16,17,21,22,28,31,36,39,40,41,43,46,49,50,61},
	{2,3,5,6,7,8,10,11,12,14,15,16,17,18,19,20,21,22,25,26,28,29,30,31,32,33,34,35,36,39,40,41,43,44,45,46,47,49,50,52,54,55,56,57,59,60,61},
	{2,3,5,6,7,8,10,11,12,14,15,17,18,19,20,25,26,28,29,30,32,33,34,35,36,39,40,43,44,45,46,49,50,52,54,55,56,57,59,60,61},
	{2,3,4,7,8,9,10,11,13,15,16,18,19,21,23,24,25,26,27,28,31,32,33,34,35,36,37,38,39,40,41,42,44,46,48,49,51,52,53,54,55,56,57,58,59,61},
	{2,3,4,7,8,9,10,11,13,15,16,18,19,21,23,24,25,26,27,28,31,32,33,34,35,36,37,38,39,40,41,42,44,46,48,49,51,52,53,54,55,56,57,58,59,61},
	{2,3,5,6,8,11,15,17,18,20,25,26,32,34,35,36,40,45,49,50,54,55,56,57,59},
	{2,3,4,7,8,9,10,11,13,14,15,16,17,19,21,23,24,25,26,27,28,31,32,33,34,35,36,37,38,39,40,41,42,44,46,48,49,50,51,52,53,54,55,56,57,59,61},
	{2,3,5,6,8,11,15,17,18,20,25,26,32,34,35,36,40,45,49,50,54,55,56,57,59},
	{3,11,14,15,16,17,21,22,28,31,36,39,40,41,43,46,49,50,61}];
